NAME: ulysses4.tsp
TYPE: TSP
COMMENT: Odyssey of Ulysses (Groetschel/Padberg)
DIMENSION: 4
EDGE_WEIGHT_TYPE: GEO
DISPLAY_DATA_TYPE: COORD_DISPLAY
NODE_COORD_SECTION
 1 45.28 09.10
 2 45.38 13.47
 3 43.31 13.14
 4 44.30 11.21
 EOF

